NAME: random-31-6541
TYPE: TSP
COMMENT: size=31 seed=6541
DIMENSION: 64
EDGE_WEIGHT_TYPE: EUC_2D
NODE_COORD_SECTION
+0 587 289
-0 587 289
+1 982 648
-1 675 318
+2 722 458
-2 364 406
+3 727 500
-3 164 915
+4 224 39
-4 411 353
+5 613 105
-5 325 942
+6 462 191
-6 712 179
+7 969 93
-7 239 571
+8 740 877
-8 552 991
+9 353 900
-9 385 478
+10 242 930
-10 891 7
+11 518 720
-11 591 689
+12 353 599
-12 130 545
+13 943 398
-13 585 507
+14 330 499
-14 21 311
+15 303 206
-15 90 342
+16 250 16
-16 777 57
+17 595 899
-17 293 457
+18 171 914
-18 110 435
+19 445 407
-19 218 990
+20 357 314
-20 648 600
+21 384 796
-21 500 196
+22 552 854
-22 33 602
+23 340 183
-23 530 355
+24 691 229
-24 591 5
+25 483 457
-25 145 546
+26 882 545
-26 301 25
+27 789 844
-27 366 553
+28 376 253
-28 246 189
+29 707 882
-29 610 1
+30 695 325
-30 61 605
+31 470 314
-31 435 587
PRECEDENCE_SECTION
+0 -0
+1 -1
+2 -2
+3 -3
+4 -4
+5 -5
+6 -6
+7 -7
+8 -8
+9 -9
+10 -10
+11 -11
+12 -12
+13 -13
+14 -14
+15 -15
+16 -16
+17 -17
+18 -18
+19 -19
+20 -20
+21 -21
+22 -22
+23 -23
+24 -24
+25 -25
+26 -26
+27 -27
+28 -28
+29 -29
+30 -30
+31 -31
EOF
